Instance Name : r206
Date : 2022-07-18
Solution
Route 1 : 83 45 82 48 47 36 11 63 62 88 7 18 5 61 16 86 38 44 91 85 99 96 6 95 97 87 43 57 2 74 72 56 4 25 55 54 24 80 68 77 12 26
Route 2 : 28 27 69 1 50 33 29 34 65 71 51 30 90 64 49 19 46 8 84 17 60 93 100 98 59 13 58
Route 3 : 94 92 37 14 42 15 23 67 39 75 22 41 73 21 40 53 76 3 79 78 81 9 35 66 20 32 10 70 31 52 89
